&BANDS
  prefix = 'silicon'
  outdir = './'
  filband = 'Si_bands.dat'
/

