&BANDS
  prefix = 'test1'
  outdir = './'
  filband = 'Si_bands.dat'
/

