&CONTROL                              ! general variables controlling the run
  calculation='relax',                ! perform structural optimization
  outdir='./',                        ! output in the same directory
  prefix='silicon',                   ! save as silicion.save
  pseudo_dir='./',                    ! location of the pseudopotential  
  restart_mode = 'from_scratch',      ! calculate from the beginnig
  verbosity='high',                   ! information amount in the output file
  tprnfor=.false.,                    ! calculate forces
  forc_conv_thr = 1.0D-4              ! convergence threshold on forces (a.u)
/
&SYSTEM                               ! structural information on the system
  ibrav=2,                            ! fcc crystal structure
  celldm(1)=10.26,                    ! crystal structure constal (BOHR)
  nat=2,                              ! number of atoms in the unit cell
  ntyp=1,                             ! number of atoms types in the unit cell
  ecutwfc=40,                         ! kinetic energy cutoff (Ry)
  ecutrho=160,                        ! charge density energy cutoff (Ry)
  !input_dft='PBE',                   ! this will overwrite the pseudo
  occupations='fixed'                 ! fixed for insulators with a gap
/
&ELECTRONS                            ! electronic variables: self-consistency, smearing
  electron_maxstep = 100,             ! max number of iteration steps
  mixing_beta=0.4,                    ! mixing factor
  conv_thr=1.0d-9,                    ! convergence threshold
/
&IONS                                 ! ionic variables: relaxation, dynamics
  ion_dynamics = 'bfgs',              ! use BFGS quasi-newton algorithm
  bfgs_ndim    = 2,                   ! number of old forces and displacements vectors used
/
ATOMIC_SPECIES
Si   28.0855   Si_pbesol.upf          ! atomic mass and pseudo file

ATOMIC_POSITIONS alat                 ! atomic positions in the unit cell
Si 0.0  0.0  0.0
Si 0.25 0.25 0.25

K_POINTS {automatic}
10 10 10 0 0 0