&CONTROL
  calculation='relax',
  outdir='./',
  prefix='test1',
  pseudo_dir='/home/pdiaz/Desktop/Carlos/DFT/Si/qe',
  restart_mode = 'from_scratch',
  verbosity='low',
  tstress=.false.,
  tprnfor=.false.,
  forc_conv_thr = 1.0D-4,
/
&SYSTEM
  ibrav=2,
  nat=2,
  celldm(1)=10.26, !
  ntyp=1,
  ecutwfc=30,
  ecutrho=120,
  lspinorb=.true.
  input_dft='PBE',
  occupations='fixed',
!  lda_plus_u = .true.,
!  Hubbard_U(1) = 12.0, 
!  Hubbard_U(2) = 6.5,
!  smearing='gaussian',
!  degauss=0.05d0,
/
&ELECTRONS
  electron_maxstep = 100,
  mixing_beta=0.4,
  conv_thr=1.0d-9,
/
&IONS
  ion_dynamics = 'bfgs',
  bfgs_ndim    = 2,
/
&CELL
  cell_dynamics = 'bfgs',
  cell_factor = 2.0,
/
ATOMIC_SPECIES
Si   28.0855   Si_Carlos.upf

ATOMIC_POSITIONS angstrom
Si 0.0   0.0   0.0
Si 1.361 1.361 1.361

K_POINTS {automatic}
4 4 4 0 0 0

