&CONTROL
  calculation='bands',
  outdir='./',
  prefix='test1',
  pseudo_dir='./',
  restart_mode = 'restart',
  verbosity='low',
  tstress=.false.,
  tprnfor=.false.,
  forc_conv_thr = 1.0D-4,
/
&SYSTEM
  ibrav=2,
  nat=2,
  celldm(1)=10.26,
  ntyp=1,
  ecutwfc=30,
  ecutrho=120,
  input_dft='PBE',
  occupations='fixed',
  noncolin=.true.,
  lspinorb=.true.,
  nbnd=20
/
&ELECTRONS
  electron_maxstep = 100,
  mixing_beta=0.4,
  conv_thr=1.0d-9,
/
&IONS
  ion_dynamics = 'bfgs',
  bfgs_ndim    = 2,
/
ATOMIC_SPECIES
Si   28.0855   Si_Carlos.upf

ATOMIC_POSITIONS angstrom
Si 0.0   0.0   0.0
Si 1.361 1.361 1.361

K_POINTS {crystal_b}
6
0.500000000 0.500000000 0.500000000 15 !L
0.000000000 0.000000000 0.000000000 15 !Gamma
0.500000000 0.000000000 0.500000000 15 !X
0.625000000 0.250000000 0.625000000 0 !U
0.750000000 0.375000000 0.375000000 15 !K
0.000000000 0.000000000 0.000000000 15 !Gamma