&CONTROL                              ! general variables controlling the run
  calculation='bands',                ! perform structural optimization
  outdir='./',                        ! output in the same directory
  prefix='silicon',                   ! save as silicion.save
  pseudo_dir='./',                    ! location of the pseudopotential  
  restart_mode = 'restart',           ! calculate from the save folder
  verbosity='high',                   ! information amount in the output file
  tprnfor=.false.,                    ! calculate forces
  forc_conv_thr = 1.0D-4              ! convergence threshold on forces (a.u)
/
&SYSTEM                               ! structural information on the system
  ibrav=2,                            ! fcc crystal structure
  celldm(1)=10.26,                    ! crystal structure constal (BOHR)
  nat=2,                              ! number of atoms in the unit cell
  ntyp=1,                             ! number of atoms types in the unit cell
  ecutwfc=40,                         ! kinetic energy cutoff (Ry)
  ecutrho=160,                        ! charge density energy cutoff (Ry)
  !input_dft='PBE',                   ! this will overwrite the pseudo
  occupations='fixed'                 ! fixed for insulators with a gap
  nbnd=12                             ! number of bands to be calculated
/
&ELECTRONS                            ! electronic variables: self-consistency, smearing
  electron_maxstep = 100,             ! max number of iteration steps
  mixing_beta=0.4,                    ! mixing factor
  conv_thr=1.0d-9,                    ! convergence threshold
/
ATOMIC_SPECIES
Si   28.0855   Si_pbesol.upf          ! atomic mass and pseudo file

ATOMIC_POSITIONS alat                 ! atomic positions in the unit cell
Si 0.0  0.0  0.0
Si 0.25 0.25 0.25

K_POINTS {crystal_b}                  !
6
0.500000000 0.500000000 0.500000000 71 !L
0.000000000 0.000000000 0.000000000 58 !Gamma
0.500000000 0.000000000 0.500000000 25 !X
0.625000000 0.250000000 0.625000000 0 !U
0.750000000 0.375000000 0.375000000 75 !K
0.000000000 0.000000000 0.000000000 0 !Gamma