&CONTROL                              ! general variables controlling the run
  calculation='bands',                ! perform structural optimization
  outdir='./',                        ! output in the same directory
  prefix='silicon',                   ! save as silicion.save
  pseudo_dir='./',                    ! location of the pseudopotential  
  restart_mode = 'restart',           ! calculate from the save folder
  verbosity='low',                    !
  tprnfor=.false.,                    ! calculate forces
  forc_conv_thr = 1.0D-4              ! convergence threshold on forces (a.u)
/
&SYSTEM                               ! structural information on the system
  ibrav=2,                            ! fcc crystal structure
  celldm(1)=10.26,                    ! crystal structure constal (BOHR)
  nat=2,                              ! number of atoms in the unit cell
  ntyp=1,                             ! number of atoms types in the unit cell
  ecutwfc=30,                         ! kinetic energy cutoff (Ry)
  noncolin=.true.,                    ! perform noncollinear calculations
  lspinorb=.true.,                    ! to use pseudo with spin-orbit
  !input_dft='PBE',                   ! this will overwrite the pseudo
  occupations='fixed'                 ! fixed for insulators with a gap
  nbnd=20
/
&ELECTRONS                            ! electronic variables: self-consistency, smearing
  electron_maxstep = 100,             ! 
  mixing_beta=0.4,                    !
  conv_thr=1.0d-9,                    ! 
/
ATOMIC_SPECIES
Si   28.0855   Si_Carlos.upf          ! atomic mass and pseudo file

ATOMIC_POSITIONS angstrom             ! atomic positions in the unit cell
Si 0.0   0.0   0.0
Si 1.361 1.361 1.361

K_POINTS {crystal_b}                  !
6
0.500000000 0.500000000 0.500000000 15 !L
0.000000000 0.000000000 0.000000000 15 !Gamma
0.500000000 0.000000000 0.500000000 15 !X
0.625000000 0.250000000 0.625000000 0 !U
0.750000000 0.375000000 0.375000000 15 !K
0.000000000 0.000000000 0.000000000 15 !Gamma