&DOS
  prefix = 'silicon'
  outdir = './'
  fildos = 'Si_dos.dat'
  Emin=-6.828,
  Emax=12.172
/

